;; sequence(s): A161462
;; terms: 1 5 2 2 5 1 0 2 7 5 6 0 7 7 0 6 5 7 2 0
;; small program: (loop(x + y, 2 + x, x * x) mod (2 + (2 * (2 + 2)))) - 2
;; fast program: (((1 + x) * (2 + ((x + x) + x))) div 2) mod (2 + (2 * (2 + 2)))
(set-logic UFNIA)
(declare-fun f0 (Int Int) Int)
(declare-fun g0 (Int) Int)
(declare-fun h0 (Int) Int)
(declare-fun u0 (Int Int) Int)
(declare-fun v0 (Int) Int)
(declare-fun small (Int) Int)
(declare-fun fast (Int) Int)
(assert (forall ((x Int) (y Int)) (= (f0 x y) (+ x y))))
(assert (forall ((x Int)) (= (g0 x) (+ 2 x))))
(assert (forall ((x Int)) (= (h0 x) (* x x))))
(assert (forall ((x Int) (y Int)) (= (u0 x y) (ite (<= x 0) y (f0 (u0 (- x 1) y) x)))))
(assert (forall ((x Int)) (= (v0 x) (u0 (g0 x) (h0 x)))))
(assert (forall ((x Int)) (= (small x) (- (mod (v0 x) (+ 2 (* 2 (+ 2 2)))) 2))))
(assert (forall ((x Int)) (= (fast x) (mod (div (* (+ 1 x) (+ 2 (+ (+ x x) x))) 2) (+ 2 (* 2 (+ 2 2)))))))
(assert (exists ((c Int)) (and (>= c 0) (not (= (small c) (fast c))))))
(check-sat)
